
n_res = 4;
rcap = [36, 33, 91, 72];
rtype = [1, 1, 2, 2];
n_tasks = 50;
modes =  [{1, 2, 3}, {4, 5, 6}, {7, 8, 9}, {10, 11, 12}, {13, 14, 15}, {16, 17, 18}, {19, 20, 21}, {22, 23, 24}, {25, 26, 27}, {28, 29, 30}, {31, 32, 33}, {34, 35, 36}, {37, 38, 39}, {40, 41, 42}, {43, 44, 45}, {46, 47, 48}, {49, 50, 51}, {52, 53, 54}, {55, 56, 57}, {58, 59, 60}, {61, 62, 63}, {64, 65, 66}, {67, 68, 69}, {70, 71, 72}, {73, 74, 75}, {76, 77, 78}, {79, 80, 81}, {82, 83, 84}, {85, 86, 87}, {88, 89, 90}, {91, 92, 93}, {94, 95, 96}, {97, 98, 99}, {100, 101, 102}, {103, 104, 105}, {106, 107, 108}, {109, 110, 111}, {112, 113, 114}, {115, 116, 117}, {118, 119, 120}, {121, 122, 123}, {124, 125, 126}, {127, 128, 129}, {130, 131, 132}, {133, 134, 135}, {136, 137, 138}, {139, 140, 141}, {142, 143, 144}, {145, 146, 147}, {148, 149, 150}];
succ =  [{13, 12, 11, 10, 7}, {10, 6, 3}, {17, 15, 11}, {15, 12, 10}, {26, 15, 10}, {26, 24, 21, 16, 15}, {21, 17, 16, 15}, {18, 17, 14}, {26, 24, 21, 19, 15}, {29, 21, 20, 18, 17}, {24, 14}, {29, 26, 21, 18, 17}, {29, 26, 20, 17}, {29, 26, 21, 20, 19}, {29, 20, 18}, {25, 20, 19}, {30, 25, 24, 19}, {30, 28, 27, 25}, {32, 28, 22}, {30, 23, 22}, {36, 30, 25}, {38, 33, 27}, {38, 33, 27}, {38, 33, 27}, {35, 33, 32, 31}, {35, 33, 32, 31}, {36, 35, 31}, {36, 33, 31}, {42, 39, 36, 35, 34}, {43, 42, 39, 37, 35}, {43, 42, 39, 34}, {39, 38, 34}, {40, 39, 37}, {50, 40, 37}, {50, 48, 47, 40}, {49, 46, 44, 41}, {46, 44, 41}, {49, 48, 47, 46, 45}, {50, 46, 45, 44}, {49, 46, 45}, {48, 45}, {47, 45}, {46, 45}, {47}, {}, {}, {}, {}, {}, {}];
n_opt = 150;
dur = [1, 5, 8, 2, 7, 8, 2, 2, 3, 1, 4, 7, 5, 7, 9, 2, 2, 7, 3, 10, 10, 4, 6, 6, 3, 6, 7, 2, 4, 5, 1, 6, 7, 1, 6, 10, 2, 6, 8, 4, 6, 7, 1, 6, 10, 3, 4, 8, 2, 4, 9, 4, 5, 6, 1, 5, 7, 1, 2, 3, 3, 6, 9, 1, 3, 4, 1, 2, 5, 4, 6, 9, 7, 9, 10, 5, 8, 9, 1, 3, 3, 6, 6, 9, 1, 2, 10, 4, 5, 9, 5, 6, 6, 3, 4, 9, 3, 5, 6, 4, 6, 8, 2, 5, 9, 2, 2, 9, 1, 4, 9, 2, 8, 8, 1, 6, 10, 4, 4, 10, 1, 8, 10, 2, 6, 8, 1, 2, 4, 1, 5, 9, 4, 8, 9, 5, 9, 10, 1, 6, 8, 1, 2, 6, 4, 5, 9, 6, 6, 6];
rreq = [|10, 10, 0, 0, 5, 2, 8, 7, 6, 7, 6, 5, 0, 0, 7, 0, 6, 4, 8, 0, 5, 0, 0, 5, 9, 0, 0, 7, 7, 0, 0, 0, 4, 9, 0, 0, 0, 0, 2, 0, 0, 0, 0, 0, 0, 0, 3, 0, 0, 5, 0, 4, 0, 0, 8, 0, 0, 0, 0, 0, 0, 0, 0, 10, 6, 4, 0, 0, 2, 0, 5, 0, 5, 0, 5, 0, 3, 0, 8, 8, 0, 10, 0, 0, 5, 0, 0, 5, 5, 0, 0, 6, 0, 9, 0, 6, 10, 9, 9, 4, 4, 0, 9, 9, 0, 0, 0, 0, 0, 6, 0, 0, 0, 0, 0, 0, 4, 0, 7, 6, 6, 5, 0, 0, 0, 0, 8, 0, 0, 0, 0, 2, 3, 0, 0, 8, 8, 8, 0, 0, 6, 8, 0, 3, 0, 8, 0, 6, 4, 0
 |0, 0, 4, 3, 0, 0, 0, 0, 0, 0, 0, 0, 6, 2, 0, 6, 0, 0, 0, 5, 0, 6, 4, 0, 0, 5, 4, 0, 0, 8, 9, 7, 0, 0, 4, 4, 4, 3, 0, 9, 8, 7, 3, 1, 1, 4, 0, 4, 10, 0, 9, 0, 5, 5, 0, 7, 6, 6, 3, 2, 6, 3, 2, 0, 0, 0, 4, 3, 0, 7, 0, 7, 0, 6, 0, 7, 0, 3, 0, 0, 5, 0, 5, 2, 0, 7, 7, 0, 0, 6, 8, 0, 4, 0, 3, 0, 0, 0, 0, 0, 0, 3, 0, 0, 6, 8, 6, 5, 7, 0, 3, 6, 6, 6, 8, 8, 0, 9, 0, 0, 0, 0, 4, 9, 8, 7, 0, 9, 9, 3, 1, 0, 0, 3, 1, 0, 0, 0, 10, 8, 0, 0, 8, 0, 10, 0, 5, 0, 0, 3
 |9, 7, 6, 7, 6, 0, 3, 0, 2, 0, 0, 0, 2, 2, 0, 0, 1, 0, 6, 0, 0, 6, 5, 4, 0, 0, 1, 7, 6, 6, 4, 0, 0, 8, 7, 6, 0, 8, 8, 6, 0, 0, 0, 3, 0, 10, 0, 3, 0, 1, 0, 0, 0, 4, 0, 8, 4, 7, 3, 1, 0, 0, 0, 7, 7, 4, 0, 0, 3, 0, 1, 0, 0, 0, 5, 8, 7, 0, 0, 5, 3, 3, 0, 1, 8, 8, 7, 0, 0, 4, 3, 1, 1, 7, 0, 0, 0, 7, 6, 10, 0, 5, 1, 0, 0, 0, 1, 0, 0, 0, 0, 8, 7, 0, 0, 0, 0, 10, 9, 0, 0, 0, 0, 2, 0, 2, 0, 0, 0, 8, 7, 7, 2, 2, 1, 8, 0, 0, 8, 0, 0, 3, 0, 2, 8, 4, 2, 0, 5, 3
 |0, 0, 0, 0, 0, 2, 0, 6, 0, 8, 6, 6, 0, 0, 1, 8, 0, 8, 0, 5, 5, 0, 0, 0, 9, 6, 0, 0, 0, 0, 0, 8, 6, 0, 0, 0, 6, 0, 0, 0, 4, 3, 3, 0, 1, 0, 8, 0, 8, 0, 7, 3, 2, 0, 10, 0, 0, 0, 0, 0, 7, 6, 5, 0, 0, 0, 5, 2, 0, 9, 0, 6, 6, 5, 0, 0, 0, 1, 7, 0, 0, 0, 8, 0, 0, 0, 0, 2, 1, 0, 0, 0, 0, 0, 5, 1, 6, 0, 0, 0, 4, 0, 0, 5, 3, 5, 0, 1, 10, 7, 3, 0, 0, 2, 9, 7, 6, 0, 0, 1, 3, 3, 2, 0, 8, 0, 5, 4, 3, 0, 0, 0, 0, 0, 0, 0, 3, 2, 0, 3, 3, 0, 3, 0, 0, 0, 0, 10, 0, 0|];